p cnf 218 50
127 200 38 0
-197 -194 139 0
157 77 28 0
-136 -196 -25 0
217 159 -207 0
58 6 -187 0
60 -62 -80 0
149 -206 -36 0
-159 135 168 0
135 -2 -57 0
40 -38 180 0
113 -157 -199 0
-37 108 193 0
-8 183 87 0
-187 85 152 0
57 -107 47 0
-73 30 105 0
14 -170 -45 0
134 115 -121 0
-120 -72 -48 0
198 104 59 0
72 212 45 0
-62 -136 24 0
1 39 98 0
-85 48 -73 0
-75 66 -191 0
-18 -115 42 0
8 -156 82 0
-52 206 -12 0
-211 -171 121 0
-206 215 -149 0
194 51 208 0
-4 -202 -218 0
-167 -173 142 0
-102 -128 153 0
55 -97 -144 0
26 -178 -52 0
-55 84 102 0
-100 -87 173 0
40 -78 -182 0
156 153 -87 0
-58 -123 173 0
-125 119 -28 0
-94 59 -26 0
-205 122 32 0
-146 -150 94 0
-14 -214 -129 0
140 -59 134 0
20 -12 -192 0
174 -117 74 0
